# 3.4.23.24_group0_PF00026_30-85~3.4.23.3_group0_PF00026_30-85.sdpA
# All alignment positions within 5\AA of a ligand/cat site passing the sdpA filter.  Column indices start with 0.
24
71
124
161
206
264
266
269
